c *********************************
c * Circuit generated by BenCGen
c *
c * CarrySkipAdder_39_39_39_InOut_G4T
c *
c * Ports with 1 gate(s): 12
c * Ports with 2 gate(s): 216
c * Ports with 3 gate(s): 1
c * Ports with 4 gate(s): 9
c * Total gates: 238
c *********************************
p cnf 316 799
1 120 0
-1 -120 0
1 -119 0
120 -119 0
-1 -120 119 0
1 40 -123 0
-1 40 123 0
1 -40 123 0
-1 -40 -123 0
123 119 -79 0
-123 119 79 0
123 -119 79 0
-123 -119 -79 0
119 -124 0
123 -124 0
-119 -123 124 0
40 -125 0
1 -125 0
-40 -1 125 0
-124 122 0
-125 122 0
124 125 -122 0
2 41 -127 0
-2 41 127 0
2 -41 127 0
-2 -41 -127 0
127 122 -80 0
-127 122 80 0
127 -122 80 0
-127 -122 -80 0
122 -128 0
127 -128 0
-122 -127 128 0
41 -129 0
2 -129 0
-41 -2 129 0
-128 126 0
-129 126 0
128 129 -126 0
3 42 -131 0
-3 42 131 0
3 -42 131 0
-3 -42 -131 0
131 126 -81 0
-131 126 81 0
131 -126 81 0
-131 -126 -81 0
126 -132 0
131 -132 0
-126 -131 132 0
42 -133 0
3 -133 0
-42 -3 133 0
-132 130 0
-133 130 0
132 133 -130 0
4 43 -134 0
-4 43 134 0
4 -43 134 0
-4 -43 -134 0
134 130 -82 0
-134 130 82 0
134 -130 82 0
-134 -130 -82 0
130 -135 0
134 -135 0
-130 -134 135 0
43 -136 0
4 -136 0
-43 -4 136 0
-135 121 0
-136 121 0
135 136 -121 0
123 -137 0
127 -137 0
131 -137 0
134 -137 0
-123 -127 -131 -134 137 0
136 -138 0
-136 138 0
119 -139 0
137 -139 0
-119 -137 139 0
-139 140 0
-121 140 0
139 121 -140 0
5 44 -143 0
-5 44 143 0
5 -44 143 0
-5 -44 -143 0
143 140 -83 0
-143 140 83 0
143 -140 83 0
-143 -140 -83 0
140 -144 0
143 -144 0
-140 -143 144 0
44 -145 0
5 -145 0
-44 -5 145 0
-144 142 0
-145 142 0
144 145 -142 0
6 45 -147 0
-6 45 147 0
6 -45 147 0
-6 -45 -147 0
147 142 -84 0
-147 142 84 0
147 -142 84 0
-147 -142 -84 0
142 -148 0
147 -148 0
-142 -147 148 0
45 -149 0
6 -149 0
-45 -6 149 0
-148 146 0
-149 146 0
148 149 -146 0
7 46 -151 0
-7 46 151 0
7 -46 151 0
-7 -46 -151 0
151 146 -85 0
-151 146 85 0
151 -146 85 0
-151 -146 -85 0
146 -152 0
151 -152 0
-146 -151 152 0
46 -153 0
7 -153 0
-46 -7 153 0
-152 150 0
-153 150 0
152 153 -150 0
8 47 -154 0
-8 47 154 0
8 -47 154 0
-8 -47 -154 0
154 150 -86 0
-154 150 86 0
154 -150 86 0
-154 -150 -86 0
150 -155 0
154 -155 0
-150 -154 155 0
47 -156 0
8 -156 0
-47 -8 156 0
-155 141 0
-156 141 0
155 156 -141 0
143 -157 0
147 -157 0
151 -157 0
154 -157 0
-143 -147 -151 -154 157 0
156 -158 0
-156 158 0
140 -159 0
157 -159 0
-140 -157 159 0
-159 160 0
-141 160 0
159 141 -160 0
9 48 -163 0
-9 48 163 0
9 -48 163 0
-9 -48 -163 0
163 160 -87 0
-163 160 87 0
163 -160 87 0
-163 -160 -87 0
160 -164 0
163 -164 0
-160 -163 164 0
48 -165 0
9 -165 0
-48 -9 165 0
-164 162 0
-165 162 0
164 165 -162 0
10 49 -167 0
-10 49 167 0
10 -49 167 0
-10 -49 -167 0
167 162 -88 0
-167 162 88 0
167 -162 88 0
-167 -162 -88 0
162 -168 0
167 -168 0
-162 -167 168 0
49 -169 0
10 -169 0
-49 -10 169 0
-168 166 0
-169 166 0
168 169 -166 0
11 50 -171 0
-11 50 171 0
11 -50 171 0
-11 -50 -171 0
171 166 -89 0
-171 166 89 0
171 -166 89 0
-171 -166 -89 0
166 -172 0
171 -172 0
-166 -171 172 0
50 -173 0
11 -173 0
-50 -11 173 0
-172 170 0
-173 170 0
172 173 -170 0
12 51 -174 0
-12 51 174 0
12 -51 174 0
-12 -51 -174 0
174 170 -90 0
-174 170 90 0
174 -170 90 0
-174 -170 -90 0
170 -175 0
174 -175 0
-170 -174 175 0
51 -176 0
12 -176 0
-51 -12 176 0
-175 161 0
-176 161 0
175 176 -161 0
163 -177 0
167 -177 0
171 -177 0
174 -177 0
-163 -167 -171 -174 177 0
176 -178 0
-176 178 0
160 -179 0
177 -179 0
-160 -177 179 0
-179 180 0
-161 180 0
179 161 -180 0
13 52 -183 0
-13 52 183 0
13 -52 183 0
-13 -52 -183 0
183 180 -91 0
-183 180 91 0
183 -180 91 0
-183 -180 -91 0
180 -184 0
183 -184 0
-180 -183 184 0
52 -185 0
13 -185 0
-52 -13 185 0
-184 182 0
-185 182 0
184 185 -182 0
14 53 -187 0
-14 53 187 0
14 -53 187 0
-14 -53 -187 0
187 182 -92 0
-187 182 92 0
187 -182 92 0
-187 -182 -92 0
182 -188 0
187 -188 0
-182 -187 188 0
53 -189 0
14 -189 0
-53 -14 189 0
-188 186 0
-189 186 0
188 189 -186 0
15 54 -191 0
-15 54 191 0
15 -54 191 0
-15 -54 -191 0
191 186 -93 0
-191 186 93 0
191 -186 93 0
-191 -186 -93 0
186 -192 0
191 -192 0
-186 -191 192 0
54 -193 0
15 -193 0
-54 -15 193 0
-192 190 0
-193 190 0
192 193 -190 0
16 55 -194 0
-16 55 194 0
16 -55 194 0
-16 -55 -194 0
194 190 -94 0
-194 190 94 0
194 -190 94 0
-194 -190 -94 0
190 -195 0
194 -195 0
-190 -194 195 0
55 -196 0
16 -196 0
-55 -16 196 0
-195 181 0
-196 181 0
195 196 -181 0
183 -197 0
187 -197 0
191 -197 0
194 -197 0
-183 -187 -191 -194 197 0
196 -198 0
-196 198 0
180 -199 0
197 -199 0
-180 -197 199 0
-199 200 0
-181 200 0
199 181 -200 0
17 56 -203 0
-17 56 203 0
17 -56 203 0
-17 -56 -203 0
203 200 -95 0
-203 200 95 0
203 -200 95 0
-203 -200 -95 0
200 -204 0
203 -204 0
-200 -203 204 0
56 -205 0
17 -205 0
-56 -17 205 0
-204 202 0
-205 202 0
204 205 -202 0
18 57 -207 0
-18 57 207 0
18 -57 207 0
-18 -57 -207 0
207 202 -96 0
-207 202 96 0
207 -202 96 0
-207 -202 -96 0
202 -208 0
207 -208 0
-202 -207 208 0
57 -209 0
18 -209 0
-57 -18 209 0
-208 206 0
-209 206 0
208 209 -206 0
19 58 -211 0
-19 58 211 0
19 -58 211 0
-19 -58 -211 0
211 206 -97 0
-211 206 97 0
211 -206 97 0
-211 -206 -97 0
206 -212 0
211 -212 0
-206 -211 212 0
58 -213 0
19 -213 0
-58 -19 213 0
-212 210 0
-213 210 0
212 213 -210 0
20 59 -214 0
-20 59 214 0
20 -59 214 0
-20 -59 -214 0
214 210 -98 0
-214 210 98 0
214 -210 98 0
-214 -210 -98 0
210 -215 0
214 -215 0
-210 -214 215 0
59 -216 0
20 -216 0
-59 -20 216 0
-215 201 0
-216 201 0
215 216 -201 0
203 -217 0
207 -217 0
211 -217 0
214 -217 0
-203 -207 -211 -214 217 0
216 -218 0
-216 218 0
200 -219 0
217 -219 0
-200 -217 219 0
-219 220 0
-201 220 0
219 201 -220 0
21 60 -223 0
-21 60 223 0
21 -60 223 0
-21 -60 -223 0
223 220 -99 0
-223 220 99 0
223 -220 99 0
-223 -220 -99 0
220 -224 0
223 -224 0
-220 -223 224 0
60 -225 0
21 -225 0
-60 -21 225 0
-224 222 0
-225 222 0
224 225 -222 0
22 61 -227 0
-22 61 227 0
22 -61 227 0
-22 -61 -227 0
227 222 -100 0
-227 222 100 0
227 -222 100 0
-227 -222 -100 0
222 -228 0
227 -228 0
-222 -227 228 0
61 -229 0
22 -229 0
-61 -22 229 0
-228 226 0
-229 226 0
228 229 -226 0
23 62 -231 0
-23 62 231 0
23 -62 231 0
-23 -62 -231 0
231 226 -101 0
-231 226 101 0
231 -226 101 0
-231 -226 -101 0
226 -232 0
231 -232 0
-226 -231 232 0
62 -233 0
23 -233 0
-62 -23 233 0
-232 230 0
-233 230 0
232 233 -230 0
24 63 -234 0
-24 63 234 0
24 -63 234 0
-24 -63 -234 0
234 230 -102 0
-234 230 102 0
234 -230 102 0
-234 -230 -102 0
230 -235 0
234 -235 0
-230 -234 235 0
63 -236 0
24 -236 0
-63 -24 236 0
-235 221 0
-236 221 0
235 236 -221 0
223 -237 0
227 -237 0
231 -237 0
234 -237 0
-223 -227 -231 -234 237 0
236 -238 0
-236 238 0
220 -239 0
237 -239 0
-220 -237 239 0
-239 240 0
-221 240 0
239 221 -240 0
25 64 -243 0
-25 64 243 0
25 -64 243 0
-25 -64 -243 0
243 240 -103 0
-243 240 103 0
243 -240 103 0
-243 -240 -103 0
240 -244 0
243 -244 0
-240 -243 244 0
64 -245 0
25 -245 0
-64 -25 245 0
-244 242 0
-245 242 0
244 245 -242 0
26 65 -247 0
-26 65 247 0
26 -65 247 0
-26 -65 -247 0
247 242 -104 0
-247 242 104 0
247 -242 104 0
-247 -242 -104 0
242 -248 0
247 -248 0
-242 -247 248 0
65 -249 0
26 -249 0
-65 -26 249 0
-248 246 0
-249 246 0
248 249 -246 0
27 66 -251 0
-27 66 251 0
27 -66 251 0
-27 -66 -251 0
251 246 -105 0
-251 246 105 0
251 -246 105 0
-251 -246 -105 0
246 -252 0
251 -252 0
-246 -251 252 0
66 -253 0
27 -253 0
-66 -27 253 0
-252 250 0
-253 250 0
252 253 -250 0
28 67 -254 0
-28 67 254 0
28 -67 254 0
-28 -67 -254 0
254 250 -106 0
-254 250 106 0
254 -250 106 0
-254 -250 -106 0
250 -255 0
254 -255 0
-250 -254 255 0
67 -256 0
28 -256 0
-67 -28 256 0
-255 241 0
-256 241 0
255 256 -241 0
243 -257 0
247 -257 0
251 -257 0
254 -257 0
-243 -247 -251 -254 257 0
256 -258 0
-256 258 0
240 -259 0
257 -259 0
-240 -257 259 0
-259 260 0
-241 260 0
259 241 -260 0
29 68 -263 0
-29 68 263 0
29 -68 263 0
-29 -68 -263 0
263 260 -107 0
-263 260 107 0
263 -260 107 0
-263 -260 -107 0
260 -264 0
263 -264 0
-260 -263 264 0
68 -265 0
29 -265 0
-68 -29 265 0
-264 262 0
-265 262 0
264 265 -262 0
30 69 -267 0
-30 69 267 0
30 -69 267 0
-30 -69 -267 0
267 262 -108 0
-267 262 108 0
267 -262 108 0
-267 -262 -108 0
262 -268 0
267 -268 0
-262 -267 268 0
69 -269 0
30 -269 0
-69 -30 269 0
-268 266 0
-269 266 0
268 269 -266 0
31 70 -271 0
-31 70 271 0
31 -70 271 0
-31 -70 -271 0
271 266 -109 0
-271 266 109 0
271 -266 109 0
-271 -266 -109 0
266 -272 0
271 -272 0
-266 -271 272 0
70 -273 0
31 -273 0
-70 -31 273 0
-272 270 0
-273 270 0
272 273 -270 0
32 71 -274 0
-32 71 274 0
32 -71 274 0
-32 -71 -274 0
274 270 -110 0
-274 270 110 0
274 -270 110 0
-274 -270 -110 0
270 -275 0
274 -275 0
-270 -274 275 0
71 -276 0
32 -276 0
-71 -32 276 0
-275 261 0
-276 261 0
275 276 -261 0
263 -277 0
267 -277 0
271 -277 0
274 -277 0
-263 -267 -271 -274 277 0
276 -278 0
-276 278 0
260 -279 0
277 -279 0
-260 -277 279 0
-279 280 0
-261 280 0
279 261 -280 0
33 72 -283 0
-33 72 283 0
33 -72 283 0
-33 -72 -283 0
283 280 -111 0
-283 280 111 0
283 -280 111 0
-283 -280 -111 0
280 -284 0
283 -284 0
-280 -283 284 0
72 -285 0
33 -285 0
-72 -33 285 0
-284 282 0
-285 282 0
284 285 -282 0
34 73 -287 0
-34 73 287 0
34 -73 287 0
-34 -73 -287 0
287 282 -112 0
-287 282 112 0
287 -282 112 0
-287 -282 -112 0
282 -288 0
287 -288 0
-282 -287 288 0
73 -289 0
34 -289 0
-73 -34 289 0
-288 286 0
-289 286 0
288 289 -286 0
35 74 -291 0
-35 74 291 0
35 -74 291 0
-35 -74 -291 0
291 286 -113 0
-291 286 113 0
291 -286 113 0
-291 -286 -113 0
286 -292 0
291 -292 0
-286 -291 292 0
74 -293 0
35 -293 0
-74 -35 293 0
-292 290 0
-293 290 0
292 293 -290 0
36 75 -294 0
-36 75 294 0
36 -75 294 0
-36 -75 -294 0
294 290 -114 0
-294 290 114 0
294 -290 114 0
-294 -290 -114 0
290 -295 0
294 -295 0
-290 -294 295 0
75 -296 0
36 -296 0
-75 -36 296 0
-295 281 0
-296 281 0
295 296 -281 0
283 -297 0
287 -297 0
291 -297 0
294 -297 0
-283 -287 -291 -294 297 0
296 -298 0
-296 298 0
280 -299 0
297 -299 0
-280 -297 299 0
-299 300 0
-281 300 0
299 281 -300 0
37 76 -303 0
-37 76 303 0
37 -76 303 0
-37 -76 -303 0
303 300 -115 0
-303 300 115 0
303 -300 115 0
-303 -300 -115 0
300 -304 0
303 -304 0
-300 -303 304 0
76 -305 0
37 -305 0
-76 -37 305 0
-304 302 0
-305 302 0
304 305 -302 0
38 77 -307 0
-38 77 307 0
38 -77 307 0
-38 -77 -307 0
307 302 -116 0
-307 302 116 0
307 -302 116 0
-307 -302 -116 0
302 -308 0
307 -308 0
-302 -307 308 0
77 -309 0
38 -309 0
-77 -38 309 0
-308 306 0
-309 306 0
308 309 -306 0
39 78 -310 0
-39 78 310 0
39 -78 310 0
-39 -78 -310 0
310 306 -117 0
-310 306 117 0
310 -306 117 0
-310 -306 -117 0
306 -311 0
310 -311 0
-306 -310 311 0
78 -312 0
39 -312 0
-78 -39 312 0
-311 301 0
-312 301 0
311 312 -301 0
303 -313 0
307 -313 0
310 -313 0
-303 -307 -310 313 0
312 -314 0
-312 314 0
300 -315 0
313 -315 0
-300 -313 315 0
-315 316 0
-301 316 0
315 301 -316 0
316 -118 0
-316 118 0
